30 4
69 75 25 27 73 43 53 8 103 81 39 31 74 35 83 25 61 29 89 84 37 42 37 85 78 63 22 74 78 62
90 77 43 22 81 40 52 27 85 73 45 42 65 23 95 29 65 41 94 90 39 51 42 63 86 67 20 83 80 69
67 80 42 17 80 57 68 33 92 76 32 36 62 22 110 20 64 45 94 87 26 46 25 86 76 75 23 92 98 71
89 97 33 19 63 58 75 35 85 90 45 24 58 27 104 17 63 32 76 93 24 69 42 80 79 74 47 91 79 70
